(set-option :smtlib2-compliant true)
;0	(-P- b)
;1	(= 0.2 (zot-p (-P- b)))
;2	(-P- a)
;3	(= 0.5 (zot-cp (-P- a) (-P- b)))
;4	(&& (-P- a) (-P- b))
;5	(< 0.0 (zot-p (&& (-P- a) (-P- b))))
;6	(&& (= 0.2 (zot-p (-P- b))) (= 0.5 (zot-cp (-P- a) (-P- b))) (< 0.0 (zot-p (&& (-P- a) (-P- b)))))

(declare-fun zot (Int Int) Bool)
(declare-fun zot-p (Int Int) Real)
(declare-fun zot-cp (Int Int Int Int) Real)

(assert (and (zot 0 6) (= (zot-p 0 6) 1.0) 
;(= 0.2 (zot-p (-P- b)))
(= (zot 0 1) (= 0.2 (zot-p 0 0)))
;(= 0.5 (zot-cp (-P- a) (-P- b)))
(= (zot 0 3) (= 0.5 (zot-cp 0 2 0 0)))
;(&& (-P- a) (-P- b))
(= (zot 0 4) (and (zot 0 2) (zot 0 0)))
(= (zot-p 0 4) (* (zot-cp 0 2 0 0) (zot-p 0 0)))
;(< 0.0 (zot-p (&& (-P- a) (-P- b))))
(= (zot 0 5) (< 0.0 (zot-p 0 4)))
(= 1.0 (zot-p 0 1))(zot 0 1)
(= 1.0 (zot-p 0 3))(zot 0 3)
(= 1.0 (zot-p 0 5))(zot 0 5)
;<Range constraints>
(>= (zot-p 0 0) 0.0) (<= (zot-p 0 0) 1.0)
(= (zot-cp 0 0 0 0) 1.0)
(>= (zot-cp 0 0 0 1) 0.0) (<= (zot-cp 0 0 0 1) 1.0)
(=> (= (zot-p 0 1) 1.0) (= (zot-cp 0 0 0 1) (zot-p 0 0)))
(=> (= (zot-p 0 0) 1.0) (= (zot-cp 0 1 0 0) (zot-p 0 1)))
(>= (zot-cp 0 0 0 2) 0.0) (<= (zot-cp 0 0 0 2) 1.0)
(=> (= (zot-p 0 2) 1.0) (= (zot-cp 0 0 0 2) (zot-p 0 0)))
(=> (= (zot-p 0 0) 1.0) (= (zot-cp 0 2 0 0) (zot-p 0 2)))
(>= (zot-cp 0 0 0 3) 0.0) (<= (zot-cp 0 0 0 3) 1.0)
(=> (= (zot-p 0 3) 1.0) (= (zot-cp 0 0 0 3) (zot-p 0 0)))
(=> (= (zot-p 0 0) 1.0) (= (zot-cp 0 3 0 0) (zot-p 0 3)))
(>= (zot-cp 0 0 0 4) 0.0) (<= (zot-cp 0 0 0 4) 1.0)
(=> (= (zot-p 0 4) 1.0) (= (zot-cp 0 0 0 4) (zot-p 0 0)))
(=> (= (zot-p 0 0) 1.0) (= (zot-cp 0 4 0 0) (zot-p 0 4)))
(>= (zot-cp 0 0 0 5) 0.0) (<= (zot-cp 0 0 0 5) 1.0)
(=> (= (zot-p 0 5) 1.0) (= (zot-cp 0 0 0 5) (zot-p 0 0)))
(=> (= (zot-p 0 0) 1.0) (= (zot-cp 0 5 0 0) (zot-p 0 5)))
(>= (zot-cp 0 0 0 6) 0.0) (<= (zot-cp 0 0 0 6) 1.0)
(=> (= (zot-p 0 6) 1.0) (= (zot-cp 0 0 0 6) (zot-p 0 0)))
(=> (= (zot-p 0 0) 1.0) (= (zot-cp 0 6 0 0) (zot-p 0 6)))
(>= (zot-p 0 1) 0.0) (<= (zot-p 0 1) 1.0)
(>= (zot-cp 0 1 0 0) 0.0) (<= (zot-cp 0 1 0 0) 1.0)
(=> (= (zot-p 0 0) 1.0) (= (zot-cp 0 1 0 0) (zot-p 0 1)))
(=> (= (zot-p 0 1) 1.0) (= (zot-cp 0 0 0 1) (zot-p 0 0)))
(= (zot-cp 0 1 0 1) 1.0)
(>= (zot-cp 0 1 0 2) 0.0) (<= (zot-cp 0 1 0 2) 1.0)
(=> (= (zot-p 0 2) 1.0) (= (zot-cp 0 1 0 2) (zot-p 0 1)))
(=> (= (zot-p 0 1) 1.0) (= (zot-cp 0 2 0 1) (zot-p 0 2)))
(>= (zot-cp 0 1 0 3) 0.0) (<= (zot-cp 0 1 0 3) 1.0)
(=> (= (zot-p 0 3) 1.0) (= (zot-cp 0 1 0 3) (zot-p 0 1)))
(=> (= (zot-p 0 1) 1.0) (= (zot-cp 0 3 0 1) (zot-p 0 3)))
(>= (zot-cp 0 1 0 4) 0.0) (<= (zot-cp 0 1 0 4) 1.0)
(=> (= (zot-p 0 4) 1.0) (= (zot-cp 0 1 0 4) (zot-p 0 1)))
(=> (= (zot-p 0 1) 1.0) (= (zot-cp 0 4 0 1) (zot-p 0 4)))
(>= (zot-cp 0 1 0 5) 0.0) (<= (zot-cp 0 1 0 5) 1.0)
(=> (= (zot-p 0 5) 1.0) (= (zot-cp 0 1 0 5) (zot-p 0 1)))
(=> (= (zot-p 0 1) 1.0) (= (zot-cp 0 5 0 1) (zot-p 0 5)))
(>= (zot-cp 0 1 0 6) 0.0) (<= (zot-cp 0 1 0 6) 1.0)
(=> (= (zot-p 0 6) 1.0) (= (zot-cp 0 1 0 6) (zot-p 0 1)))
(=> (= (zot-p 0 1) 1.0) (= (zot-cp 0 6 0 1) (zot-p 0 6)))
(>= (zot-p 0 2) 0.0) (<= (zot-p 0 2) 1.0)
(>= (zot-cp 0 2 0 0) 0.0) (<= (zot-cp 0 2 0 0) 1.0)
(=> (= (zot-p 0 0) 1.0) (= (zot-cp 0 2 0 0) (zot-p 0 2)))
(=> (= (zot-p 0 2) 1.0) (= (zot-cp 0 0 0 2) (zot-p 0 0)))
(>= (zot-cp 0 2 0 1) 0.0) (<= (zot-cp 0 2 0 1) 1.0)
(=> (= (zot-p 0 1) 1.0) (= (zot-cp 0 2 0 1) (zot-p 0 2)))
(=> (= (zot-p 0 2) 1.0) (= (zot-cp 0 1 0 2) (zot-p 0 1)))
(= (zot-cp 0 2 0 2) 1.0)
(>= (zot-cp 0 2 0 3) 0.0) (<= (zot-cp 0 2 0 3) 1.0)
(=> (= (zot-p 0 3) 1.0) (= (zot-cp 0 2 0 3) (zot-p 0 2)))
(=> (= (zot-p 0 2) 1.0) (= (zot-cp 0 3 0 2) (zot-p 0 3)))
(>= (zot-cp 0 2 0 4) 0.0) (<= (zot-cp 0 2 0 4) 1.0)
(=> (= (zot-p 0 4) 1.0) (= (zot-cp 0 2 0 4) (zot-p 0 2)))
(=> (= (zot-p 0 2) 1.0) (= (zot-cp 0 4 0 2) (zot-p 0 4)))
(>= (zot-cp 0 2 0 5) 0.0) (<= (zot-cp 0 2 0 5) 1.0)
(=> (= (zot-p 0 5) 1.0) (= (zot-cp 0 2 0 5) (zot-p 0 2)))
(=> (= (zot-p 0 2) 1.0) (= (zot-cp 0 5 0 2) (zot-p 0 5)))
(>= (zot-cp 0 2 0 6) 0.0) (<= (zot-cp 0 2 0 6) 1.0)
(=> (= (zot-p 0 6) 1.0) (= (zot-cp 0 2 0 6) (zot-p 0 2)))
(=> (= (zot-p 0 2) 1.0) (= (zot-cp 0 6 0 2) (zot-p 0 6)))
(>= (zot-p 0 3) 0.0) (<= (zot-p 0 3) 1.0)
(>= (zot-cp 0 3 0 0) 0.0) (<= (zot-cp 0 3 0 0) 1.0)
(=> (= (zot-p 0 0) 1.0) (= (zot-cp 0 3 0 0) (zot-p 0 3)))
(=> (= (zot-p 0 3) 1.0) (= (zot-cp 0 0 0 3) (zot-p 0 0)))
(>= (zot-cp 0 3 0 1) 0.0) (<= (zot-cp 0 3 0 1) 1.0)
(=> (= (zot-p 0 1) 1.0) (= (zot-cp 0 3 0 1) (zot-p 0 3)))
(=> (= (zot-p 0 3) 1.0) (= (zot-cp 0 1 0 3) (zot-p 0 1)))
(>= (zot-cp 0 3 0 2) 0.0) (<= (zot-cp 0 3 0 2) 1.0)
(=> (= (zot-p 0 2) 1.0) (= (zot-cp 0 3 0 2) (zot-p 0 3)))
(=> (= (zot-p 0 3) 1.0) (= (zot-cp 0 2 0 3) (zot-p 0 2)))
(= (zot-cp 0 3 0 3) 1.0)
(>= (zot-cp 0 3 0 4) 0.0) (<= (zot-cp 0 3 0 4) 1.0)
(=> (= (zot-p 0 4) 1.0) (= (zot-cp 0 3 0 4) (zot-p 0 3)))
(=> (= (zot-p 0 3) 1.0) (= (zot-cp 0 4 0 3) (zot-p 0 4)))
(>= (zot-cp 0 3 0 5) 0.0) (<= (zot-cp 0 3 0 5) 1.0)
(=> (= (zot-p 0 5) 1.0) (= (zot-cp 0 3 0 5) (zot-p 0 3)))
(=> (= (zot-p 0 3) 1.0) (= (zot-cp 0 5 0 3) (zot-p 0 5)))
(>= (zot-cp 0 3 0 6) 0.0) (<= (zot-cp 0 3 0 6) 1.0)
(=> (= (zot-p 0 6) 1.0) (= (zot-cp 0 3 0 6) (zot-p 0 3)))
(=> (= (zot-p 0 3) 1.0) (= (zot-cp 0 6 0 3) (zot-p 0 6)))
(>= (zot-p 0 4) 0.0) (<= (zot-p 0 4) 1.0)
(>= (zot-cp 0 4 0 0) 0.0) (<= (zot-cp 0 4 0 0) 1.0)
(=> (= (zot-p 0 0) 1.0) (= (zot-cp 0 4 0 0) (zot-p 0 4)))
(=> (= (zot-p 0 4) 1.0) (= (zot-cp 0 0 0 4) (zot-p 0 0)))
(>= (zot-cp 0 4 0 1) 0.0) (<= (zot-cp 0 4 0 1) 1.0)
(=> (= (zot-p 0 1) 1.0) (= (zot-cp 0 4 0 1) (zot-p 0 4)))
(=> (= (zot-p 0 4) 1.0) (= (zot-cp 0 1 0 4) (zot-p 0 1)))
(>= (zot-cp 0 4 0 2) 0.0) (<= (zot-cp 0 4 0 2) 1.0)
(=> (= (zot-p 0 2) 1.0) (= (zot-cp 0 4 0 2) (zot-p 0 4)))
(=> (= (zot-p 0 4) 1.0) (= (zot-cp 0 2 0 4) (zot-p 0 2)))
(>= (zot-cp 0 4 0 3) 0.0) (<= (zot-cp 0 4 0 3) 1.0)
(=> (= (zot-p 0 3) 1.0) (= (zot-cp 0 4 0 3) (zot-p 0 4)))
(=> (= (zot-p 0 4) 1.0) (= (zot-cp 0 3 0 4) (zot-p 0 3)))
(= (zot-cp 0 4 0 4) 1.0)
(>= (zot-cp 0 4 0 5) 0.0) (<= (zot-cp 0 4 0 5) 1.0)
(=> (= (zot-p 0 5) 1.0) (= (zot-cp 0 4 0 5) (zot-p 0 4)))
(=> (= (zot-p 0 4) 1.0) (= (zot-cp 0 5 0 4) (zot-p 0 5)))
(>= (zot-cp 0 4 0 6) 0.0) (<= (zot-cp 0 4 0 6) 1.0)
(=> (= (zot-p 0 6) 1.0) (= (zot-cp 0 4 0 6) (zot-p 0 4)))
(=> (= (zot-p 0 4) 1.0) (= (zot-cp 0 6 0 4) (zot-p 0 6)))
(>= (zot-p 0 5) 0.0) (<= (zot-p 0 5) 1.0)
(>= (zot-cp 0 5 0 0) 0.0) (<= (zot-cp 0 5 0 0) 1.0)
(=> (= (zot-p 0 0) 1.0) (= (zot-cp 0 5 0 0) (zot-p 0 5)))
(=> (= (zot-p 0 5) 1.0) (= (zot-cp 0 0 0 5) (zot-p 0 0)))
(>= (zot-cp 0 5 0 1) 0.0) (<= (zot-cp 0 5 0 1) 1.0)
(=> (= (zot-p 0 1) 1.0) (= (zot-cp 0 5 0 1) (zot-p 0 5)))
(=> (= (zot-p 0 5) 1.0) (= (zot-cp 0 1 0 5) (zot-p 0 1)))
(>= (zot-cp 0 5 0 2) 0.0) (<= (zot-cp 0 5 0 2) 1.0)
(=> (= (zot-p 0 2) 1.0) (= (zot-cp 0 5 0 2) (zot-p 0 5)))
(=> (= (zot-p 0 5) 1.0) (= (zot-cp 0 2 0 5) (zot-p 0 2)))
(>= (zot-cp 0 5 0 3) 0.0) (<= (zot-cp 0 5 0 3) 1.0)
(=> (= (zot-p 0 3) 1.0) (= (zot-cp 0 5 0 3) (zot-p 0 5)))
(=> (= (zot-p 0 5) 1.0) (= (zot-cp 0 3 0 5) (zot-p 0 3)))
(>= (zot-cp 0 5 0 4) 0.0) (<= (zot-cp 0 5 0 4) 1.0)
(=> (= (zot-p 0 4) 1.0) (= (zot-cp 0 5 0 4) (zot-p 0 5)))
(=> (= (zot-p 0 5) 1.0) (= (zot-cp 0 4 0 5) (zot-p 0 4)))
(= (zot-cp 0 5 0 5) 1.0)
(>= (zot-cp 0 5 0 6) 0.0) (<= (zot-cp 0 5 0 6) 1.0)
(=> (= (zot-p 0 6) 1.0) (= (zot-cp 0 5 0 6) (zot-p 0 5)))
(=> (= (zot-p 0 5) 1.0) (= (zot-cp 0 6 0 5) (zot-p 0 6)))
(>= (zot-p 0 6) 0.0) (<= (zot-p 0 6) 1.0)
(>= (zot-cp 0 6 0 0) 0.0) (<= (zot-cp 0 6 0 0) 1.0)
(=> (= (zot-p 0 0) 1.0) (= (zot-cp 0 6 0 0) (zot-p 0 6)))
(=> (= (zot-p 0 6) 1.0) (= (zot-cp 0 0 0 6) (zot-p 0 0)))
(>= (zot-cp 0 6 0 1) 0.0) (<= (zot-cp 0 6 0 1) 1.0)
(=> (= (zot-p 0 1) 1.0) (= (zot-cp 0 6 0 1) (zot-p 0 6)))
(=> (= (zot-p 0 6) 1.0) (= (zot-cp 0 1 0 6) (zot-p 0 1)))
(>= (zot-cp 0 6 0 2) 0.0) (<= (zot-cp 0 6 0 2) 1.0)
(=> (= (zot-p 0 2) 1.0) (= (zot-cp 0 6 0 2) (zot-p 0 6)))
(=> (= (zot-p 0 6) 1.0) (= (zot-cp 0 2 0 6) (zot-p 0 2)))
(>= (zot-cp 0 6 0 3) 0.0) (<= (zot-cp 0 6 0 3) 1.0)
(=> (= (zot-p 0 3) 1.0) (= (zot-cp 0 6 0 3) (zot-p 0 6)))
(=> (= (zot-p 0 6) 1.0) (= (zot-cp 0 3 0 6) (zot-p 0 3)))
(>= (zot-cp 0 6 0 4) 0.0) (<= (zot-cp 0 6 0 4) 1.0)
(=> (= (zot-p 0 4) 1.0) (= (zot-cp 0 6 0 4) (zot-p 0 6)))
(=> (= (zot-p 0 6) 1.0) (= (zot-cp 0 4 0 6) (zot-p 0 4)))
(>= (zot-cp 0 6 0 5) 0.0) (<= (zot-cp 0 6 0 5) 1.0)
(=> (= (zot-p 0 5) 1.0) (= (zot-cp 0 6 0 5) (zot-p 0 6)))
(=> (= (zot-p 0 6) 1.0) (= (zot-cp 0 5 0 6) (zot-p 0 5)))
(= (zot-cp 0 6 0 6) 1.0)
;</Range constraints>
))

(check-sat-using qfufnra)
(get-model)
